p cnf 7230 17
-2484 -3164 3621 0
3164 -3621 0
-2490 -2966 -3626 0
-2488 -3160 -3624 0
-2486 -2980 -3622 0
2490 -3627 0
2488 -3625 0
2486 -3623 0
3626 3627 0
3624 3625 0
3622 3623 0
2966 -3627 0
3160 -3625 0
2980 -3623 0
2494 -3629 0
3620 3621 0
-3620 -3621 0
